C  N  C  N  C  N  C  N  C  N  C  N  C  N  C  N  C  N  C  N  C  N  C  N  C  N  C  N  C  N  C  N  C  N  C  N  C  N  C  N  C  N  C  N  C  N  C  N  C  N  C  N  C  N  C  N  C  N  C  N  C  N  C  N  C  N  C  N  C  N  C  N  C  N  C  N  C  N  C  N  C  N  C  N  C  N  C  N  C  N  C  N  C  N  C  N  Pt
 1.0000000000000000
    28.5199999999999996    0.0000000000000000    0.0000000000000000
    14.2599999999999998   24.6990444079999989    0.0000000000000000
     0.0000000000000000    0.0000000000000000   18.0000000000000000
 C   N   C   N   C   N   C   N   C   N   C   N   C   N   C   N   C   N   C   N   C   N   C   N   C   N   C   N   C   N   C   N   C   N   C   N   C   N   C   N   C   N   C   N   C   N   C   N   C   N   C   N   C   N   C   N   C   N   C   N   C   N   C   N   C   N   C   N   C   N   C   N   C   N   C   N   C   N   C   N   C   N   C   N   C   N   C   N   C   N   C   N   C   N   C   N   Pt 
   1   1   1   1   1   3   1   1   1   1   1   3   1   1   1   1   1   3   1   1   1   1   1   3   1   1   1   1   1   3   1   1   1   1   1   3   1   1   1   1   1   3   1   1   1   1   1   3   1   1   1   1   1   3   1   1   1   1   1   3   1   1   1   1   1   3   1   1   1   1   1   3   1   1   1   1   1   3   1   1   1   1   1   3   1   1   1   1   1   3   1   1   1   1   1   3   1
Direct
  0.0000000000000000  0.0000000000000000  0.5000000000000000
  0.1250000000000000  0.0000000000000000  0.5000000000000000
  0.0000000000000000  0.1250000000000000  0.5000000000000000
  0.1250000000000000  0.1250000000000000  0.5000000000000000
  0.0625000000000000  0.0625000000000000  0.5000000000000000
  0.1875000000000000  0.0625000000000000  0.5000000000000000
  0.0625000000000000  0.1875000000000000  0.5000000000000000
  0.1875000000000000  0.1875000000000000  0.5000000000000000
  0.0000000000000000  0.2500000000000000  0.5000000000000000
  0.1250000000000000  0.2500000000000000  0.5000000000000000
 -0.0000000000000000  0.3750000000000001  0.5000000000000000
  0.1250000000000000  0.3750000000000001  0.5000000000000000
  0.0625000000000000  0.3125000000000000  0.5000000000000000
  0.1875000000000000  0.3125000000000000  0.5000000000000000
  0.0625000000000000  0.4375000000000000  0.5000000000000000
  0.1875000000000000  0.4375000000000000  0.5000000000000000
  0.0000000000000000  0.5000000000000000  0.5000000000000000
  0.1250000000000000  0.5000000000000000  0.5000000000000000
 -0.0000000000000000  0.6250000000000000  0.5000000000000000
  0.1250000000000000  0.6250000000000000  0.5000000000000000
  0.0625000000000000  0.5625000000000000  0.5000000000000000
  0.1875000000000000  0.5625000000000000  0.5000000000000000
  0.0625000000000000  0.6875000000000000  0.5000000000000000
  0.1875000000000000  0.6875000000000000  0.5000000000000000
 -0.0000000000000000  0.7500000000000001  0.5000000000000000
  0.1249999999999999  0.7500000000000001  0.5000000000000000
 -0.0000000000000000  0.8750000000000000  0.5000000000000000
  0.1250000000000000  0.8750000000000000  0.5000000000000000
  0.0625000000000000  0.8125000000000000  0.5000000000000000
  0.1875000000000000  0.8125000000000000  0.5000000000000000
  0.0625000000000000  0.9375000000000000  0.5000000000000000
  0.1875000000000000  0.9375000000000000  0.5000000000000000
  0.2500000000000000  0.0000000000000000  0.5000000000000000
  0.3750000000000000  0.0000000000000000  0.5000000000000000
  0.2500000000000000  0.1250000000000000  0.5000000000000000
  0.3750000000000000  0.1250000000000000  0.5000000000000000
  0.3125000000000000  0.0625000000000000  0.5000000000000000
  0.4374999999999999  0.0625000000000000  0.5000000000000000
  0.3125000000000000  0.1875000000000000  0.5000000000000000
  0.4374999999999999  0.1875000000000000  0.5000000000000000
  0.2500000000000000  0.2500000000000000  0.5000000000000000
  0.3750000000000000  0.2500000000000000  0.5000000000000000
  0.2499999999999999  0.3750000000000001  0.5000000000000000
  0.3750000000000000  0.3750000000000001  0.5000000000000000
  0.3125000000000000  0.3125000000000000  0.5000000000000000
  0.4374999999999999  0.3125000000000000  0.5000000000000000
  0.3125000000000000  0.4375000000000000  0.5000000000000000
  0.4374999999999999  0.4375000000000000  0.5000000000000000
  0.2500000000000000  0.5000000000000000  0.5000000000000000
  0.3750000000000000  0.5000000000000000  0.5000000000000000
  0.2500000000000000  0.6250000000000000  0.5000000000000000
  0.3750000000000001  0.6250000000000000  0.5000000000000000
  0.3125000000000000  0.5625000000000000  0.5000000000000000
  0.4374999999999999  0.5625000000000000  0.5000000000000000
  0.3125000000000000  0.6875000000000000  0.5000000000000000
  0.4375000000000000  0.6875000000000000  0.5000000000000000
  0.2499999999999999  0.7500000000000001  0.5000000000000000
  0.3749999999999999  0.7500000000000001  0.5000000000000000
  0.2499999999999999  0.8750000000000000  0.5000000000000000
  0.3750000000000000  0.8750000000000000  0.5000000000000000
  0.3125000000000001  0.8125000000000000  0.5000000000000000
  0.4374999999999999  0.8125000000000000  0.5000000000000000
  0.3125000000000000  0.9375000000000000  0.5000000000000000
  0.4374999999999999  0.9375000000000000  0.5000000000000000
  0.5000000000000000  0.0000000000000000  0.5000000000000000
  0.6250000000000000  0.0000000000000000  0.5000000000000000
  0.5000000000000000  0.1250000000000000  0.5000000000000000
  0.6250000000000000  0.1250000000000000  0.5000000000000000
  0.5625000000000000  0.0625000000000000  0.5000000000000000
  0.6874999999999999  0.0625000000000000  0.5000000000000000
  0.5624999999999999  0.1875000000000000  0.5000000000000000
  0.6874999999999998  0.1875000000000000  0.5000000000000000
  0.5000000000000000  0.2500000000000000  0.5000000000000000
  0.6250000000000000  0.2500000000000000  0.5000000000000000
  0.4999999999999999  0.3750000000000001  0.5000000000000000
  0.6250000000000000  0.3750000000000001  0.5000000000000000
  0.5625000000000000  0.3125000000000000  0.5000000000000000
  0.6874999999999999  0.3125000000000000  0.5000000000000000
  0.5625000000000000  0.4375000000000000  0.5000000000000000
  0.6874999999999999  0.4375000000000000  0.5000000000000000
  0.5000000000000000  0.5000000000000000  0.5000000000000000
  0.6250000000000000  0.5000000000000000  0.5000000000000000
  0.5000000000000000  0.6250000000000000  0.5000000000000000
  0.6250000000000000  0.6250000000000000  0.5000000000000000
  0.5625000000000000  0.5625000000000000  0.5000000000000000
  0.6874999999999999  0.5625000000000000  0.5000000000000000
  0.5625000000000000  0.6875000000000000  0.5000000000000000
  0.6874999999999999  0.6875000000000000  0.5000000000000000
  0.4999999999999998  0.7500000000000001  0.5000000000000000
  0.6250000000000000  0.7500000000000001  0.5000000000000000
  0.5000000000000000  0.8750000000000000  0.5000000000000000
  0.6250000000000000  0.8750000000000000  0.5000000000000000
  0.5625000000000000  0.8125000000000000  0.5000000000000000
  0.6874999999999999  0.8125000000000000  0.5000000000000000
  0.5625000000000000  0.9375000000000000  0.5000000000000000
  0.6875000000000000  0.9375000000000000  0.5000000000000000
  0.7500000000000000  0.0000000000000000  0.5000000000000000
  0.8749999999999999  0.0000000000000000  0.5000000000000000
  0.7500000000000000  0.1250000000000000  0.5000000000000000
  0.8749999999999999  0.1250000000000000  0.5000000000000000
  0.8125000000000000  0.0625000000000000  0.5000000000000000
  0.9375000000000000  0.0625000000000000  0.5000000000000000
  0.8124999999999998  0.1875000000000000  0.5000000000000000
  0.9374999999999999  0.1875000000000000  0.5000000000000000
  0.7500000000000000  0.2500000000000000  0.5000000000000000
  0.8749999999999999  0.2500000000000000  0.5000000000000000
  0.7500000000000000  0.3750000000000001  0.5000000000000000
  0.8749999999999999  0.3750000000000001  0.5000000000000000
  0.8125000000000000  0.3125000000000000  0.5000000000000000
  0.9375000000000000  0.3125000000000000  0.5000000000000000
  0.8125000000000000  0.4375000000000000  0.5000000000000000
  0.9375000000000000  0.4375000000000000  0.5000000000000000
  0.7500000000000000  0.5000000000000000  0.5000000000000000
  0.8750000000000000  0.5000000000000000  0.5000000000000000
  0.7500000000000000  0.6250000000000000  0.5000000000000000
  0.8749999999999999  0.6250000000000000  0.5000000000000000
  0.8125000000000000  0.5625000000000000  0.5000000000000000
  0.9375000000000000  0.5625000000000000  0.5000000000000000
  0.8125000000000000  0.6875000000000000  0.5000000000000000
  0.9374999999999999  0.6875000000000000  0.5000000000000000
  0.7500000000000000  0.7500000000000001  0.5000000000000000
  0.8749999999999999  0.7500000000000001  0.5000000000000000
  0.7500000000000000  0.8750000000000000  0.5000000000000000
  0.8749999999999999  0.8750000000000000  0.5000000000000000
  0.8125000000000000  0.8125000000000000  0.5000000000000000
  0.9375000000000001  0.8125000000000000  0.5000000000000000
  0.8125000000000000  0.9375000000000000  0.5000000000000000
  0.9375000000000001  0.9375000000000000  0.5000000000000000
  0.5000000000000000  0.5000000000000000  0.6111111111111110
