Mo S  Mo S  Mo S  Mo S  Mo S  Mo S  Mo S  Mo S  Mo S  Mo S  Mo S  Mo S  Mo S  Mo S  Mo S  Mo S  Fe
 1.0000000000000000
    12.7200000000000006    0.0000000000000000    0.0000000000000000
    -6.3600000000000003   11.0158431361380593    0.0000000000000000
     0.0000000000000000   -0.0000000000000000   39.1300000000000026
 Mo  S   Mo  S   Mo  S   Mo  S   Mo  S   Mo  S   Mo  S   Mo  S   Mo  S   Mo  S   Mo  S   Mo  S   Mo  S   Mo  S   Mo  S   Mo  S   Fe 
   1   1   1   2   1   2   1   2   1   2   1   2   1   2   1   2   1   2   1   2   1   2   1   2   1   2   1   2   1   2   1   2   1
Direct
  0.0034886198196101  0.0010357500152048  0.4996382226597179
  0.1669681443776548  0.0841111548549207  0.4601829972684117
  0.0006281840948610  0.2490512971307914  0.5000665096580931
  0.1661968692743351  0.3290181044781162  0.5402395483452194
  0.1680646114693500  0.3325978773060528  0.4597170013934578
  0.0003344763051008  0.5001675969063001  0.5000645703996727
  0.1663234941620332  0.5831599782237467  0.5404583585379957
  0.1669132125264720  0.5831542653568742  0.4597358311344500
  0.0007340357590895  0.7517951011713715  0.5000527021312461
  0.1663063234456422  0.8372781379435696  0.5403251822456331
  0.1682059378961965  0.8353968994647298  0.4596774439172129
  0.2477937616027752  0.0012234477180400  0.4995719586917878
  0.4125979368803865  0.0833885775283865  0.5403178267960819
  0.4147814319857557  0.0821391798015307  0.4597653158358787
  0.2496014280431522  0.2481883162914838  0.5000087861018496
  0.4137010913457656  0.3325652352783010  0.5429532773877156
  0.4147864604083640  0.3327141855837316  0.4599306888568471
  0.2502024652795239  0.4992244669480620  0.5004538745387244
  0.4181330076734898  0.5818142242124802  0.5425934659719951
  0.4163778353242376  0.5832479996401452  0.4600215066022445
  0.2500091884807121  0.7501123050992227  0.5001121345424189
  0.4166654868949848  0.8335516314959984  0.5403130229305374
  0.4167337607307145  0.8333141555042685  0.4598064381241714
  0.4997839963169785  0.0000733468910232  0.5000996486346572
  0.6668351114462124  0.0836380205154742  0.5404627692485697
  0.6664339329094838  0.0831164103303837  0.4596826103608434
  0.4979896639364450  0.2496973811897702  0.5003680429455043
  0.6662479457460314  0.3328063742163807  0.5402626247818814
  0.6662213275801336  0.3332165586253419  0.4598445154800612
  0.5002725045073330  0.4999546815583292  0.4998633673570606
  0.6639550454768678  0.5820487387884690  0.5428079311398791
  0.6669510160056552  0.5835509331170953  0.4598860491921362
  0.5005445639504273  0.7497268684456718  0.5004602454663212
  0.6669010560398562  0.8337733310709199  0.5403413999526286
  0.6668780424293970  0.8334159777183769  0.4597468703763095
  0.7503113858140518  0.0000991830586860  0.5001023129870893
  0.9209497335202173  0.0835652201981142  0.5402316026247639
  0.9173756074182650  0.0819025238806191  0.4597559506202638
  0.7500276920691281  0.2497116254875827  0.5000639355541905
  0.9168254831155357  0.3332198253355589  0.5403048464892998
  0.9169266584180537  0.3331782638973403  0.4598038462097727
  0.7491654587095286  0.4998356448806953  0.5004275174994068
  0.9169183282665012  0.5836224045416788  0.5402960913179554
  0.9166457103070798  0.5836513033490324  0.4599012466927351
  0.7493718442803194  0.7496975771726014  0.5005128670008655
  0.9212230927030396  0.8375665978984463  0.5403629155340002
  0.9168280158310370  0.8353074721541679  0.4597471918308753
  0.4995255325787518  0.4987103795732035  0.5785436665118912
