N  C  N  C  N  C  N  C  Fe
 1.0000000000000000
     9.8399999999999999    0.0000000000000000    0.0000000000000000
    -4.9199999999999999    8.5216899732388764    0.0000000000000000
     0.0000000000000000   -0.0000000000000000   36.0000000000000000
 N   C   N   C   N   C   N   C   Fe 
   1   1   1   4   1   1   1  21   1
Direct
  0.0839297248603441  0.0413376507079508  0.4994664364365717
 -0.0163594362733104  0.2323722175059502  0.4998771187590813
  0.1599318127604706  0.3468738384792136  0.4982826773115640
  0.0001792583644987  0.5008373240530066  0.4997507735637878
  0.1651242069757611  0.5875585289072562  0.5000577999559100
 -0.0023210909381768  0.7600386654724361  0.5001706950052174
  0.1708884099629329  0.8297196591978170  0.5000148220722925
  0.2574490165482871 -0.0042635351819094  0.4998909877466000
  0.4239671766222896  0.0816552226619425  0.4998827292890419
  0.2696056162346611  0.2473045896418392  0.5010149828812559
  0.4299132380363783  0.3408380561807066  0.5056266834483180
  0.2506792753889648  0.5109978812480196  0.5006988616831416
  0.4209328666434914  0.5861405719163570  0.5038337449756763
  0.2514928014706191  0.7476488978144403  0.5001961370610319
  0.4192981451397899  0.8342864513080944  0.4999812103615502
  0.5090120294342307 -0.0025586961653947  0.4997290792613118
  0.6720005973702914  0.0824852098759005  0.5001874425214526
  0.5062706393478614  0.2506561837961765  0.5005856155014458
  0.6668513634957854  0.3308555418938168  0.4990972849261268
  0.5099009368238072  0.5147313926314698  0.4898880243976620
  0.6704422485761902  0.5878865859783960  0.5031386875755309
  0.5023319086342454  0.7528295685247451  0.5006294297069093
  0.6661557177538112  0.8353492755942278  0.4991981926685036
  0.7564208673112276 -0.0006146878923007  0.4998028161373201
  0.9204496010004771  0.0725547048525332  0.5000170450096726
  0.7513988164377473  0.2501574434384018  0.4996599808151064
  0.9138707254137199  0.3309621984778711  0.4999200085623903
  0.7516569734165316  0.4999707030279377  0.5007236069478913
  0.9156758634412122  0.5870744733423885  0.5000536715561522
  0.7546933506279437  0.7581689867518844  0.5004868593002643
  0.9179127857831918  0.8439141103275714  0.5001060912330705
  0.4972128560732368  0.4949458122964434  0.5522319024568006
