N  C  N  C  N  C  N  C  Co N  O 
 1.0000000000000000
     9.8399999999999999    0.0000000000000000    0.0000000000000000
    -4.9199999999999999    8.5216899732388764    0.0000000000000000
     0.0000000000000000   -0.0000000000000000   36.0000000000000000
 N   C   N   C   N   C   N   C   Co  N   O  
   1   1   1   4   1   1   1  21   1   1   3
Direct
  0.1666666666666667  0.0833333333333333  0.5000000000000000
  0.0000000000000000  0.2500000000000000  0.5000000000000000
  0.1666666666666667  0.3333333333333333  0.5000000000000000
  0.0000000000000000  0.5000000000000000  0.5000000000000000
  0.1666666666666665  0.5833333333333331  0.5000000000000000
 -0.0000000000000002  0.7499999999999998  0.5000000000000000
  0.1666666666666666  0.8333333333333333  0.5000000000000000
  0.2500000000000000  0.0000000000000000  0.5000000000000000
  0.4166666666666665  0.0833333333333333  0.5000000000000000
  0.2500000000000000  0.2500000000000000  0.5000000000000000
  0.4166666666666665  0.3333333333333333  0.5000000000000000
  0.2500000000000000  0.5000000000000000  0.5000000000000000
  0.4166666666666665  0.5833333333333331  0.5000000000000000
  0.2499999999999999  0.7499999999999998  0.5000000000000000
  0.4166666666666665  0.8333333333333333  0.5000000000000000
  0.5000000000000000  0.0000000000000000  0.5000000000000000
  0.6666666666666667  0.0833333333333333  0.5000000000000000
  0.5000000000000000  0.2500000000000000  0.5000000000000000
  0.6666666666666666  0.3333333333333333  0.5000000000000000
  0.5000000000000000  0.5000000000000000  0.5000000000000000
  0.6666666666666665  0.5833333333333331  0.5000000000000000
  0.4999999999999998  0.7499999999999998  0.5000000000000000
  0.6666666666666666  0.8333333333333333  0.5000000000000000
  0.7500000000000000  0.0000000000000000  0.5000000000000000
  0.9166666666666666  0.0833333333333333  0.5000000000000000
  0.7500000000000001  0.2500000000000000  0.5000000000000000
  0.9166666666666667  0.3333333333333333  0.5000000000000000
  0.7500000000000000  0.5000000000000000  0.5000000000000000
  0.9166666666666666  0.5833333333333331  0.5000000000000000
  0.7499999999999998  0.7499999999999998  0.5000000000000000
  0.9166666666666666  0.8333333333333333  0.5000000000000000
  0.5000000000000000  0.5000000000000000  0.5555555555555556
  0.5000000000000000  0.5000000000000000  0.6069444444444444
  0.6168699186991871  0.5000000000000000  0.6166666666666666
  0.4997307184135798  0.6173476156889482  0.6166666666666666
  0.3823831027246315  0.3826523843110516  0.6166666666666666
