Mo S  Mo S  Mo S  Mo S  Mo S  Mo S  Mo S  Mo S  Mo S  Mo S  Mo S  Mo S  Mo S  Mo S  Mo S  Mo S  Co N  O 
 1.0000000000000000
    12.7200000000000006    0.0000000000000000    0.0000000000000000
    -6.3600000000000003   11.0158431361380593    0.0000000000000000
     0.0000000000000000   -0.0000000000000000   39.1300000000000026
 Mo  S   Mo  S   Mo  S   Mo  S   Mo  S   Mo  S   Mo  S   Mo  S   Mo  S   Mo  S   Mo  S   Mo  S   Mo  S   Mo  S   Mo  S   Mo  S   Co  N   O  
   1   1   1   2   1   2   1   2   1   2   1   2   1   2   1   2   1   2   1   2   1   2   1   2   1   2   1   2   1   2   1   2   1   1   3
Direct
  0.0000000000000000  0.0000000000000000  0.5000000000000000
  0.1666666666666667  0.0833333333333333  0.4600051111679018
 -0.0000000000000000  0.2500000000000000  0.5000000000000000
  0.1666666666666667  0.3333333333333333  0.5399948888320980
  0.1666666666666667  0.3333333333333333  0.4600051111679018
  0.0000000000000000  0.4999999999999999  0.5000000000000000
  0.1666666666666666  0.5833333333333333  0.5399948888320980
  0.1666666666666666  0.5833333333333333  0.4600051111679018
 -0.0000000000000000  0.7500000000000000  0.5000000000000000
  0.1666666666666666  0.8333333333333333  0.5399948888320980
  0.1666666666666666  0.8333333333333333  0.4600051111679018
  0.2500000000000000  0.0000000000000000  0.5000000000000000
  0.4166666666666667  0.0833333333333333  0.5399948888320980
  0.4166666666666667  0.0833333333333333  0.4600051111679018
  0.2500000000000000  0.2500000000000000  0.5000000000000000
  0.4166666666666666  0.3333333333333333  0.5399948888320980
  0.4166666666666666  0.3333333333333333  0.4600051111679018
  0.2500000000000000  0.4999999999999999  0.5000000000000000
  0.4166666666666666  0.5833333333333333  0.5399948888320980
  0.4166666666666666  0.5833333333333333  0.4600051111679018
  0.2500000000000000  0.7500000000000000  0.5000000000000000
  0.4166666666666666  0.8333333333333333  0.5399948888320980
  0.4166666666666666  0.8333333333333333  0.4600051111679018
  0.5000000000000000  0.0000000000000000  0.5000000000000000
  0.6666666666666666  0.0833333333333333  0.5399948888320980
  0.6666666666666666  0.0833333333333333  0.4600051111679018
  0.5000000000000000  0.2500000000000000  0.5000000000000000
  0.6666666666666666  0.3333333333333333  0.5399948888320980
  0.6666666666666666  0.3333333333333333  0.4600051111679018
  0.5000000000000000  0.4999999999999999  0.5000000000000000
  0.6666666666666666  0.5833333333333333  0.5399948888320980
  0.6666666666666666  0.5833333333333333  0.4600051111679018
  0.5000000000000000  0.7500000000000000  0.5000000000000000
  0.6666666666666666  0.8333333333333333  0.5399948888320980
  0.6666666666666666  0.8333333333333333  0.4600051111679018
  0.7500000000000000  0.0000000000000000  0.5000000000000000
  0.9166666666666666  0.0833333333333333  0.5399948888320980
  0.9166666666666666  0.0833333333333333  0.4600051111679018
  0.7500000000000000  0.2500000000000000  0.5000000000000000
  0.9166666666666666  0.3333333333333333  0.5399948888320980
  0.9166666666666666  0.3333333333333333  0.4600051111679018
  0.7500000000000000  0.4999999999999999  0.5000000000000000
  0.9166666666666666  0.5833333333333333  0.5399948888320980
  0.9166666666666666  0.5833333333333333  0.4600051111679018
  0.7500000000000000  0.7500000000000000  0.5000000000000000
  0.9166666666666666  0.8333333333333333  0.5399948888320980
  0.9166666666666666  0.8333333333333333  0.4600051111679018
  0.5000000000000000  0.4999999999999999  0.5885509838998211
  0.5000000000000000  0.4999999999999999  0.6358292869920776
  0.5904088050314465  0.4999999999999999  0.6447738308203423
  0.4997916878293731  0.5907783442122052  0.6447738308203423
  0.4090133436171678  0.4092216557877946  0.6447738308203423
