N  C  N  C  N  C  N  C  Fe
 1.0000000000000000
     9.8399999999999999    0.0000000000000000    0.0000000000000000
    -4.9199999999999999    8.5216899732388764    0.0000000000000000
     0.0000000000000000   -0.0000000000000000   36.0000000000000000
 N   C   N   C   N   C   N   C   Fe 
   1   1   1   4   1   1   1  21   1
Direct
  0.1774196810025633  0.0890748808126744  0.5032969158707915
  0.0003543891174237  0.2233466942842022  0.4993415931560707
  0.1658783437620504  0.3205821158412618  0.4984684543320482
 -0.0006535753735396  0.4992128230091850  0.4997652399388682
  0.1645824956084732  0.5806785966568186  0.5005393151374371
  0.0002560293132296  0.7762369026023083  0.5002731841380064
  0.1663931258327200  0.8448542659286848  0.4999983913532826
  0.2597487470835589  0.0119050441097640  0.5001785852490874
  0.4235308343848752  0.0884032654109067  0.5001415540703014
  0.2609208879887094  0.2481318034040337  0.4966103231837231
  0.4250161453688249  0.3407814465599354  0.5066450159626685
  0.2435826277380654  0.4894035428783024  0.5007396690949626
  0.4114116666549091  0.5765748170854845  0.5015934302021579
  0.2440942634837716  0.7527539890300761  0.5004023656101949
  0.4108200228372156  0.8325927517193993  0.5001611988877708
  0.5005405207588920 -0.0008573076558236  0.4991295751313554
  0.6677198576060240  0.0811405205262245  0.4990086557111225
  0.5077547813857511  0.2527281035159605  0.5025456638950412
  0.6746955114754455  0.3363807539839528  0.5006811129359520
  0.5027333742380539  0.5023098774356866  0.4943013644262321
  0.6684925283617263  0.5871713277988238  0.5020063576640459
  0.4893904952780543  0.7456757512849479  0.5008729318322949
  0.6527766670250771  0.8278942004689002  0.5000647728955582
  0.7454728819117633 -0.0075321160565785  0.4992363809635605
  0.9100058648855910  0.0458593278429993  0.4996297909646851
  0.7548350944991036  0.2485504338152240  0.4992360877289005
  0.9210697046469521  0.3244881279947313  0.4992649503404468
  0.7558443061054899  0.5049426141082449  0.5013036125048617
  0.9208372712704078  0.5957838901885918  0.5003879958512834
  0.7464561249023728  0.7561718502472238  0.5011767452906143
  0.9080810001690428  0.8638294864977132  0.5007346705675705
  0.5028081921153964  0.4971886953155679  0.5468653837768019
