N  C  N  C  N  C  N  C  Fe
 1.0000000000000000
     9.8399999999999999    0.0000000000000000    0.0000000000000000
    -4.9199999999999999    8.5216899732388764    0.0000000000000000
     0.0000000000000000   -0.0000000000000000   36.0000000000000000
 N   C   N   C   N   C   N   C   Fe 
   1   1   1   4   1   1   1  21   1
Direct
  0.1352521949036281  0.0619894642239537  0.5015594848572873
 -0.0039079190817209  0.2280325591853483  0.4997800005454405
  0.1633531141139612  0.3292105974768453  0.4972212354940260
 -0.0012440840206789  0.5003317087978464  0.4998327671809601
  0.1647067567774423  0.5840638139900065  0.5000539590064925
  0.0020800274873400  0.7707131682799746  0.4999197949871250
  0.1670960347656229  0.8362295473786726  0.5001479124205668
  0.2484504600019014  0.0034715491765148  0.4999728693549029
  0.4194408416961203  0.0852860184077607  0.4995247354463267
  0.2475012919267528  0.2391420421777556  0.4943367404344406
  0.4228046314675983  0.3389204488761252  0.5107802667921454
  0.2482943053835914  0.5005224360307128  0.5007710578759232
  0.4171758429619662  0.5851905554975471  0.5042052123268947
  0.2500758566241575  0.7519287515296583  0.5000107583303366
  0.4169764972339614  0.8338869091307946  0.5000281286997347
  0.5029340675828116 -0.0009543772318257  0.4997042316608502
  0.6702346909849860  0.0824161903200359  0.5002052903419456
  0.5051847716357956  0.2514267156938518  0.5005959616007323
  0.6720592416001845  0.3351617531698304  0.4987267932496841
  0.5053795477097782  0.5070433930568514  0.4968486205389819
  0.6733292356755138  0.5903956747778794  0.5039330883839750
  0.4993802449384220  0.7521929062338636  0.5004833334430702
  0.6615566011257344  0.8328709063478075  0.4989282484900029
  0.7514599488370641 -0.0033708114740926  0.4997221689435185
  0.9139163295669668  0.0505404422814435  0.5000081096132374
  0.7531993843168742  0.2489840513088785  0.4994349057009964
  0.9184433800781738  0.3259395539487789  0.4998980441548163
  0.7551349528337360  0.5037218296170074  0.5005200209164147
  0.9199725734834427  0.5949904578447713  0.4999591110191464
  0.7526156593979476  0.7589118125324520  0.5000961029140721
  0.9138824237048232  0.8604720339148780  0.5000726155992888
  0.4991714772716317  0.4930440238899174  0.5469940087312827
